name	xcoord	ycoord	start	end	service
0	0	0	0	2000	0
1	-54	3	1785	1842	12
2	6	-48	523	613	14
3	-25	19	1617	1764	16
4	-76	93	322	397	0
5	-34	27	1740	1819	13
6	-78	91	1120	1186	16
7	-82	79	1596	1668	24
8	95	12	1561	1657	15
9	-71	0	1479	1536	3
10	-62	-82	1459	1553	19
11	60	92	699	756	1
12	-18	-83	793	991	8
13	-26	-9	1838	2032	8
14	-64	-9	1296	1372	22
15	99	90	1454	1544	18
16	73	-46	604	637	18
17	2	-74	1020	1166	16
18	30	53	586	770	16
19	-76	94	436	644	1
20	-14	-12	1550	1646	21
21	81	-88	1395	1580	9
22	79	39	784	874	7
23	-33	-1	970	1154	8
24	-6	-74	1114	1196	5
25	-84	-31	1801	1941	12
26	22	38	27	168	4
27	-21	-71	1901	2105	5
28	84	-72	248	440	23
29	-27	9	1721	1800	12
30	-79	-46	972	1094	9
